set COLORS := red blue green yellow orange;

set NODES := A B C D E F;

set EDGES := (A, B) (A, C) (A, D) (A, E)
	     (B, A) (B, C) (B, D) (B, E)
	     (C, A) (C, B) (C, D) (C, E)
	     (D, A) (D, B) (D, C) (D, E)
	     (E, A) (E, B) (E, C) (E, D)
